
  12    4
  10   10   10   10

   0   0   0   0   0   3 2 3 6 
  10  10  10  10  10   2 8 4 
   7  10  10  10  10   2 8 4 
   3  10  10  10  10   1 5 
   7  10  10  10  10   2 9 7 
   7  10  10  10  10   2 11 9 
   7  10  10  10  10   2 11 10 
   2  10  10  10  10   1 9 
   2  10  10  10  10   1 10 
   2  10  10  10  10   1 12
   3  10  10  10  10   1 12
   0   0   0   0   0   0 
